min: c;

c = 3.43658107523701 * u4_t1_h1 + 3.68255559134804 * u4_t1_h2 + 3.06271757467767 * u4_t1_h3 + 3.45627812546856 * u4_t1_h4 + 3.45627812546856 * u4_t10_h4 + 4.02803853654439 * u4_t1_h5 + 4.02803853654439 * u4_t10_h5 + 3.53047024505285 * u4_t1_h6 + 3.53047024505285 * u4_t10_h6 + 4.29234009190491 * u4_t1_h7 + 4.29234009190491 * u4_t10_h7 + 5.01899399964376 * u4_t1_h8 + 5.01899399964376 * u4_t9_h8 + 5.01899399964376 * u4_t10_h8 + 4.7831896810001 * u4_t9_h9 + 4.7831896810001 * u4_t10_h9 + 5.39649373091393 * u4_t9_h10 + 5.39649373091393 * u4_t10_h10 + 3.62164525353888 * u4_t2_h11 + 3.62164525353888 * u4_t4_h11 + 3.62164525353888 * u4_t9_h11 + 3.62164525353888 * u4_t10_h11 + 6.52511405066837 * u4_t2_h12 + 6.52511405066837 * u4_t3_h12 + 6.52511405066837 * u4_t4_h12 + 6.52511405066837 * u4_t8_h12 + 6.52511405066837 * u4_t9_h12 + 6.52511405066837 * u4_t10_h12 + 4.34263631482957 * u4_t2_h13 + 4.34263631482957 * u4_t3_h13 + 4.34263631482957 * u4_t4_h13 + 4.34263631482957 * u4_t8_h13 + 4.34263631482957 * u4_t9_h13 + 5.85722269007359 * u4_t2_h14 + 5.85722269007359 * u4_t3_h14 + 5.85722269007359 * u4_t4_h14 + 5.85722269007359 * u4_t8_h14 + 5.85722269007359 * u4_t9_h14 + 6.38160238785678 * u4_t2_h15 + 6.38160238785678 * u4_t3_h15 + 6.38160238785678 * u4_t4_h15 + 6.38160238785678 * u4_t8_h15 + 6.38160238785678 * u4_t9_h15 + 6.11551929701169 * u4_t2_h16 + 6.11551929701169 * u4_t3_h16 + 6.11551929701169 * u4_t4_h16 + 6.11551929701169 * u4_t5_h16 + 6.11551929701169 * u4_t8_h16 + 6.11551929701169 * u4_t9_h16 + 6.29475554382194 * u4_t2_h17 + 6.29475554382194 * u4_t3_h17 + 6.29475554382194 * u4_t5_h17 + 6.29475554382194 * u4_t8_h17 + 6.29475554382194 * u4_t9_h17 + 6.5131445728803 * u4_t2_h18 + 6.5131445728803 * u4_t3_h18 + 6.5131445728803 * u4_t5_h18 + 6.5131445728803 * u4_t8_h18 + 6.5131445728803 * u4_t9_h18 + 5.25018950601471 * u4_t2_h19 + 5.25018950601471 * u4_t3_h19 + 5.25018950601471 * u4_t6_h19 + 5.25018950601471 * u4_t8_h19 + 5.25018950601471 * u4_t9_h19 + 5.913804588632 * u4_t2_h20 + 5.913804588632 * u4_t6_h20 + 5.913804588632 * u4_t9_h20 + 5.12382685690879 * u4_t6_h21 + 5.62943812228955 * u4_t6_h22 + 5.62943812228955 * u4_t7_h22 + 5.75354475562452 * u4_t6_h23 + 5.75354475562452 * u4_t7_h23;
0 <= u4_t1_h1 <= 1;
0 <= u4_t1_h2 <= 1;
0 <= u4_t1_h3 <= 1;
0 <= u4_t1_h4 <= 1;
0 <= u4_t1_h5 <= 1;
0 <= u4_t1_h6 <= 1;
0 <= u4_t1_h7 <= 1;
0 <= u4_t1_h8 <= 1;
u4_t1_h1 + u4_t1_h2 + u4_t1_h3 + u4_t1_h4 + u4_t1_h5 + u4_t1_h6 + u4_t1_h7 + u4_t1_h8 = 1;
0 <= u4_t2_h11 <= 1;
0 <= u4_t2_h12 <= 1;
0 <= u4_t2_h13 <= 1;
0 <= u4_t2_h14 <= 1;
0 <= u4_t2_h15 <= 1;
0 <= u4_t2_h16 <= 1;
0 <= u4_t2_h17 <= 1;
0 <= u4_t2_h18 <= 1;
0 <= u4_t2_h19 <= 1;
0 <= u4_t2_h20 <= 1;
u4_t2_h11 + u4_t2_h12 + u4_t2_h13 + u4_t2_h14 + u4_t2_h15 + u4_t2_h16 + u4_t2_h17 + u4_t2_h18 + u4_t2_h19 + u4_t2_h20 = 2;
0 <= u4_t3_h12 <= 1;
0 <= u4_t3_h13 <= 1;
0 <= u4_t3_h14 <= 1;
0 <= u4_t3_h15 <= 1;
0 <= u4_t3_h16 <= 1;
0 <= u4_t3_h17 <= 1;
0 <= u4_t3_h18 <= 1;
0 <= u4_t3_h19 <= 1;
u4_t3_h12 + u4_t3_h13 + u4_t3_h14 + u4_t3_h15 + u4_t3_h16 + u4_t3_h17 + u4_t3_h18 + u4_t3_h19 = 3;
0 <= u4_t4_h11 <= 1;
0 <= u4_t4_h12 <= 1;
0 <= u4_t4_h13 <= 1;
0 <= u4_t4_h14 <= 1;
0 <= u4_t4_h15 <= 1;
0 <= u4_t4_h16 <= 1;
u4_t4_h11 + u4_t4_h12 + u4_t4_h13 + u4_t4_h14 + u4_t4_h15 + u4_t4_h16 = 3;
0 <= u4_t5_h16 <= 1;
0 <= u4_t5_h17 <= 1;
0 <= u4_t5_h18 <= 1;
u4_t5_h16 + u4_t5_h17 + u4_t5_h18 = 1;
0 <= u4_t6_h19 <= 1;
0 <= u4_t6_h20 <= 1;
0 <= u4_t6_h21 <= 1;
0 <= u4_t6_h22 <= 1;
0 <= u4_t6_h23 <= 1;
u4_t6_h19 + u4_t6_h20 + u4_t6_h21 + u4_t6_h22 + u4_t6_h23 = 3;
0 <= u4_t7_h22 <= 1;
0 <= u4_t7_h23 <= 1;
u4_t7_h22 + u4_t7_h23 = 1;
0 <= u4_t8_h12 <= 1;
0 <= u4_t8_h13 <= 1;
0 <= u4_t8_h14 <= 1;
0 <= u4_t8_h15 <= 1;
0 <= u4_t8_h16 <= 1;
0 <= u4_t8_h17 <= 1;
0 <= u4_t8_h18 <= 1;
0 <= u4_t8_h19 <= 1;
u4_t8_h12 + u4_t8_h13 + u4_t8_h14 + u4_t8_h15 + u4_t8_h16 + u4_t8_h17 + u4_t8_h18 + u4_t8_h19 = 2;
0 <= u4_t9_h8 <= 1;
0 <= u4_t9_h9 <= 1;
0 <= u4_t9_h10 <= 1;
0 <= u4_t9_h11 <= 1;
0 <= u4_t9_h12 <= 1;
0 <= u4_t9_h13 <= 1;
0 <= u4_t9_h14 <= 1;
0 <= u4_t9_h15 <= 1;
0 <= u4_t9_h16 <= 1;
0 <= u4_t9_h17 <= 1;
0 <= u4_t9_h18 <= 1;
0 <= u4_t9_h19 <= 1;
0 <= u4_t9_h20 <= 1;
u4_t9_h8 + u4_t9_h9 + u4_t9_h10 + u4_t9_h11 + u4_t9_h12 + u4_t9_h13 + u4_t9_h14 + u4_t9_h15 + u4_t9_h16 + u4_t9_h17 + u4_t9_h18 + u4_t9_h19 + u4_t9_h20 = 2;
0 <= u4_t10_h4 <= 1;
0 <= u4_t10_h5 <= 1;
0 <= u4_t10_h6 <= 1;
0 <= u4_t10_h7 <= 1;
0 <= u4_t10_h8 <= 1;
0 <= u4_t10_h9 <= 1;
0 <= u4_t10_h10 <= 1;
0 <= u4_t10_h11 <= 1;
0 <= u4_t10_h12 <= 1;
u4_t10_h4 + u4_t10_h5 + u4_t10_h6 + u4_t10_h7 + u4_t10_h8 + u4_t10_h9 + u4_t10_h10 + u4_t10_h11 + u4_t10_h12 = 2;
